3 10 5 6 4 9 8 1 7 2  10 1 2 9 8 5 7 6 3 4  3 7 5 2 8 9 6 1 4 10  7 4 1 10 6 8 5 2 9 3  2 10 1 8 3 5 6 7 9 4  2 3 1 7 5 4 10 8 6 9  4 7 10 5 9 2 8 6 3 1  5 8 3 4 9 10 7 1 6 2  3 10 6 8 5 4 9 1 7 2  6 5 2 10 9 7 8 4 3 1  10 4 2 1 5 9 6 7 3 8  5 6 2 4 8 3 10 9 7 1  6 4 3 1 9 2 10 7 8 5  5 6 10 4 1 9 3 8 7 2  3 1 2 5 9 10 6 8 4 7  6 1 5 7 3 4 9 2 8 10  9 1 6 7 2 4 5 8 3 10  9 5 7 1 2 4 6 3 10 8  4 2 8 9 5 3 7 6 1 10  10 3 8 5 9 7 6 1 4 2